dias = 5;
clientes = 3;
centrales = 3;

costos=[100,200,300];
capacidades=[300,200,500];
porcentajeRegimen=[80,80,80];
diasRegimen=[2,1,3];

demanda=[|200,200,200,400,0|
          50,50,50,50,200|
          100,0,100,0,100|]

